0000001110000000
0000001110000000
0000001110000000
0000001110000000
0000001111111110
0000001111111110
0000000000001110
0000000000001110
0000000000001110
0000000000011110
0000000000011100
0000000000111000
0000000000111000
0000000000111000
0000000000111000
0000000000000000
